c turning on binary mode checking
c parsing input formula with 259840 variables and 1039934 clauses
c finished parsing, read 3023619 bytes from proof file
c detected empty clause; start verification via backward checking
c 5584 of 1039934 clauses in core                            
c 1717 of 121087 lemmas in core using 48711 resolution steps
c 0 RAT lemmas in core; 202 redundant literals in core lemmas
s VERIFIED
c verification time: 1.446 seconds
